c This DIMACS format CNF file was generated by SatSolver.java
c Do not edit.
p cnf 147 535
1 22 43 64 85 106 127 0
2 23 44 65 86 107 128 0
3 24 45 66 87 108 129 0
4 25 46 67 88 109 130 0
5 26 47 68 89 110 131 0
6 27 48 69 90 111 132 0
7 28 49 70 91 112 133 0
8 29 50 71 92 113 134 0
9 30 51 72 93 114 135 0
10 31 52 73 94 115 136 0
11 32 53 74 95 116 137 0
12 33 54 75 96 117 138 0
13 34 55 76 97 118 139 0
14 35 56 77 98 119 140 0
15 36 57 78 99 120 141 0
16 37 58 79 100 121 142 0
17 38 59 80 101 122 143 0
18 39 60 81 102 123 144 0
19 40 61 82 103 124 145 0
20 41 62 83 104 125 146 0
21 42 63 84 105 126 147 0
1 22 0
1 43 0
1 64 0
1 85 0
1 106 0
1 127 0
22 43 0
22 64 0
22 85 0
22 106 0
22 127 0
43 64 0
43 85 0
43 106 0
43 127 0
64 85 0
64 106 0
64 127 0
85 106 0
85 127 0
106 127 0
2 23 0
2 44 0
2 65 0
2 86 0
2 107 0
2 128 0
23 44 0
23 65 0
23 86 0
23 107 0
23 128 0
44 65 0
44 86 